0 34942 
1 33206 
2 32086 
3 31988 
4 31156 
5 30388 
6 30296 
7 29740 
8 29574 
9 29560 
10 28240 
11 26740 
12 26260 
13 25742 
14 24176 
15 24078 
16 22766 
17 22728 
18 20712 
19 20562 
20 20030 
21 19248 
22 18488 
23 18148 
24 17662 
25 17344 
26 16224 
27 16176 
28 16104 
29 16100 
30 15420 
31 15382 
32 15006 
33 14794 
34 13836 
35 13806 
36 13598 
37 13488 
38 12448 
39 12062 
40 12062 

